HUN,8,6,422
2,23,3,4,4,20,0,22,5,29,1,5
4,22,5,9,2,23,0,9,3,8,1,22
3,16,1,30,0,24,5,14,4,27,2,7
4,28,2,25,3,6,1,13,5,20,0,14
0,26,4,4,2,21,5,11,1,18,3,18
2,14,0,22,4,9,1,25,5,20,3,12
0,27,5,20,4,20,1,30,2,23,3,4
5,9,2,3,0,14,4,12,1,5,3,20
